\Problem name: MGP_b2arStep2.lp

Minimize
 obj: x1 + x2 + x3 + x4 + x5 + x6 + x7 + x8 + x9 + x10 + x11 + x12 + x13
Subject To
 c1:  y1,1  = 1
 c2:  y2,1  = 1
 c3:  y3,1  = 1
 c4:  y4,1  = 1
 c5:  y5,1  = 1
 c6:  y6,1  = 1
 c7:  y7,1  = 1
 c8:  y8,1  = 1
 c9:  y9,1  = 1
 c10: y10,1  = 1
 c11: y11,1 + y11,2  = 1
 c12: y12,1  = 1
 c13: y13,1 + y13,2 + y13,3  = 1
 c14: y14,1  = 1
 c15: y15,1  = 1
 c16: y16,1  = 1
 c17: y17,1  = 1
 c18: y18,1  = 1
 c19: - x1 + y1,1 <= 0
 c20: - x2 + y1,1 <= 0
 c21: - x1 + y2,1 <= 0
 c22: - x1 + y2,1 <= 0
 c23: - x1 + y3,1 <= 0
 c24: - x3 + y3,1 <= 0
 c25: - x2 + y4,1 <= 0
 c26: - x2 + y4,1 <= 0
 c27: - x2 + y5,1 <= 0
 c28: - x3 + y5,1 <= 0
 c29: - x1 + y6,1 <= 0
 c30: - x4 + y6,1 <= 0
 c31: - x2 + y7,1 <= 0
 c32: - x9 + y7,1 <= 0
 c33: - x2 + y8,1 <= 0
 c34: - x10 + y8,1 <= 0
 c35: - x3 + y9,1 <= 0
 c36: - x10 + y9,1 <= 0
 c37: - x1 + y10,1 <= 0
 c38: - x5 + y10,1 <= 0
 c39: - x1 + y11,1 <= 0
 c40: - x6 + y11,1 <= 0
 c41: - x2 + y11,2 <= 0
 c42: - x11 + y11,2 <= 0
 c43: - x1 + y12,1 <= 0
 c44: - x7 + y12,1 <= 0
 c45: - x1 + y13,1 <= 0
 c46: - x8 + y13,1 <= 0
 c47: - x2 + y13,2 <= 0
 c48: - x12 + y13,2 <= 0
 c49: - x3 + y13,3 <= 0
 c50: - x13 + y13,3 <= 0
 c51: - x2 + y14,1 <= 0
 c52: - x6 + y14,1 <= 0
 c53: - x2 + y15,1 <= 0
 c54: - x4 + y15,1 <= 0
 c55: - x2 + y16,1 <= 0
 c56: - x7 + y16,1 <= 0
 c57: - x2 + y17,1 <= 0
 c58: - x8 + y17,1 <= 0
 c59: - x3 + y18,1 <= 0
 c60: - x7 + y18,1 <= 0
Bounds
 0 <= x1 <= 1
 0 <= x2 <= 1
 0 <= x3 <= 1
 0 <= x4 <= 1
 0 <= x5 <= 1
 0 <= x6 <= 1
 0 <= x7 <= 1
 0 <= x8 <= 1
 0 <= x9 <= 1
 0 <= x10 <= 1
 0 <= x11 <= 1
 0 <= x12 <= 1
 0 <= x13 <= 1
 0 <= y1,1 <= 1
 0 <= y2,1 <= 1
 0 <= y3,1 <= 1
 0 <= y4,1 <= 1
 0 <= y5,1 <= 1
 0 <= y6,1 <= 1
 0 <= y7,1 <= 1
 0 <= y8,1 <= 1
 0 <= y9,1 <= 1
 0 <= y10,1 <= 1
 0 <= y11,1 <= 1
 0 <= y11,2 <= 1
 0 <= y12,1 <= 1
 0 <= y13,1 <= 1
 0 <= y13,2 <= 1
 0 <= y13,3 <= 1
 0 <= y14,1 <= 1
 0 <= y15,1 <= 1
 0 <= y16,1 <= 1
 0 <= y17,1 <= 1
 0 <= y18,1 <= 1
Generals
 x1  x2  x3  x4  x5  x6  x7  x8  x9  x10  x11  x12  x13  y1,1  y2,1  y3,1 
 y4,1  y5,1  y6,1  y7,1  y8,1  y9,1  y10,1  y11,1  y11,2  y12,1  y13,1  y13,2 
 y13,3  y14,1  y15,1  y16,1  y17,1  y18,1 
End
